
Gurobi 6.5.2 (linux64) logging started Sun Sep 18 18:44:12 2016


Gurobi 6.5.2 (linux64) logging started Sun Sep 18 18:44:12 2016

Optimize a model with 201 rows, 1585 columns and 3493 nonzeros
Coefficient statistics:
  Matrix range    [1e+00, 2e+00]
  Objective range [1e+00, 1e+02]
  Bounds range    [1e+00, 1e+00]
  RHS range       [1e+00, 1e+00]
Presolve removed 52 rows and 5 columns
Presolve time: 0.01s
Presolved: 149 rows, 1580 columns, 3254 nonzeros
Variable types: 0 continuous, 1580 integer (1580 binary)

Root relaxation: objective 1.465500e+03, 149 iterations, 0.00 seconds

    Nodes    |    Current Node    |     Objective Bounds      |     Work
 Expl Unexpl |  Obj  Depth IntInf | Incumbent    BestBd   Gap | It/Node Time

     0     0 1465.50000    0   20          - 1465.50000      -     -    0s
H    0     0                    2453.0000000 1465.50000  40.3%     -    0s
     0     0 1494.00000    0   18 2453.00000 1494.00000  39.1%     -    0s
     0     0 1494.00000    0    9 2453.00000 1494.00000  39.1%     -    0s
     0     0 1494.00000    0    9 2453.00000 1494.00000  39.1%     -    0s
     0     0 1494.00000    0    8 2453.00000 1494.00000  39.1%     -    0s
     0     2 1494.00000    0    8 2453.00000 1494.00000  39.1%     -    0s
*   32    28               8    1523.0000000 1494.17647  1.89%   5.4    0s
*   80    28               7    1497.0000000 1494.50000  0.17%   5.9    0s
*  197     0               5    1496.0000000 1496.00000  0.00%   6.3    0s

Cutting planes:
  Cover: 16
  MIR: 1
  Zero half: 3
  Lazy constraints: 26

Explored 198 nodes (1442 simplex iterations) in 0.20 seconds
Thread count was 8 (of 8 available processors)

Optimal solution found (tolerance 1.00e-04)
Best objective 1.496000000000e+03, best bound 1.496000000000e+03, gap 0.0%
